maximize
OBJ:100x0 + 100x1 + 100x2 + 100x3 + 100x4 + 100x5 + 100x6 + 100x7 + 100x8 + 100x9 + 100x10 + 100x11 + 100x12 + 100x13 + 100x14 + 100x15 + 100x16 + 100x17 + 100x18 + 100x19 + 100x20 + 100x21 + 100x22 + 100x23 + 100x24 + 100x25 + 100x26 + 100x27 + 100x28 + 100x29 + 100x30 + 100x31 + 100x32 + 100x33 + 100x34 + 100x35 + 100x36 + 100x37 + 100x38 + 100x39 + 100x40 + 100x41 + 100x42 + 100x43 + 100x44 + 100x45 + 100x46 + 100x47 + 100x48 + 100x49 + 100x50 + 100x51 + 100x52 + 100x53 + 100x54 + 100x55 + 100x56 + 100x57 + 100x58 + 100x59 + 100x60 + 100x61 + 100x62 - y15_21 - y55_57 - y47_53 - y15_30 - y7_26 - y15_39 - y28_58 - y29_32 - y18_44 - y21_37 - y0_14 - y6_48 - y40_50 - y21_46 - y29_59 - y33_47 - y3_6 - y33_56 - y14_15 - y3_24 - y32_60 - y7_12 - y36_48 - y17_44 - y7_21 - y7_30 - y5_60 - y29_45 - y21_50 - y10_31 - y33_42 - y3_10 - y22_23 - y2_54 - y32_55 - y22_32 - y24_60 - y17_39 - y7_16 - y6_56 - y40_58 - y21_54 - y10_26 - y54_60 - y10_35 - y25_33 - y25_42 - y32_50 - y43_50 - y13_46 - y43_59 - y1_53 - y1_62 - y16_60 - y17_25 - y17_34 - y7_11 - y28_43 - y9_39 - y5_50 - y17_52 - y28_52 - y9_48 - y58_62 - y9_57 - y21_31 - y10_12 - y10_21 - y20_53 - y31_53 - y54_55 - y2_26 - y23_58 - y13_32 - y24_32 - y32_45 - y35_41 - y3_18 - y43_54 - y24_50 - y24_59 - y17_29 - y28_29 - y36_42 - y17_38 - y47_51 - y5_45 - y6_10 - y28_47 - y9_43 - y5_54 - y28_56 - y50_53 - y2_3 - y39_52 - y39_61 - y4_49 - y32_40 - y43_49 - y1_52 - y35_54 - y1_61 - y9_11 - y36_37 - y17_33 - y28_33 - y3_47 - y17_42 - y9_38 - y6_14 - y9_47 - y58_61 - y42_44 - y50_57 - y8_51 - y19_60 - y30_60 - y42_62 - y12_39 - y23_39 - y20_52 - y4_44 - y4_53 - y13_31 - y4_62 - y16_27 - y13_40 - y35_40 - y43_53 - y16_36 - y16_45 - y16_54 - y49_60 - y9_33 - y50_52 - y8_46 - y50_61 - y8_55 - y19_55 - y30_55 - y20_29 - y39_42 - y12_25 - y23_25 - y12_34 - y39_60 - y12_43 - y23_52 - y12_61 - y13_26 - y53_62 - y32_39 - y16_22 - y34_58 - y13_35 - y24_35 - y16_31 - y1_51 - y16_49 - y46_50 - y38_46 - y46_59 - y26_53 - y38_55 - y9_28 - y26_62 - y8_32 - y19_32 - y27_45 - y8_41 - y8_50 - y11_46 - y39_46 - y12_29 - y12_47 - y23_47 - y23_56 - y45_53 - y4_61 - y34_62 - y38_41 - y15_48 - y26_48 - y38_50 - y15_57 - y49_59 - y27_31 - y19_27 - y27_40 - y50_51 - y42_56 - y0_50 - y11_50 - y12_15 - y4_11 - y0_59 - y23_42 - y1_5 - y4_38 - y13_16 - y37_44 - y16_21 - y22_55 - y1_32 - y3_51 - y34_57 - y16_30 - y14_60 - y15_34 - y38_45 - y46_58 - y7_39 - y18_39 - y15_61 - y7_57 - y27_35 - y0_18 - y19_31 - y0_27 - y8_40 - y27_53 - y11_36 - y8_49 - y4_6 - y44_60 - y25_56 - y34_43 - y1_18 - y22_50 - y34_52 - y45_61 - y56_61 - y14_55 - y15_29 - y5_6 - y18_25 - y15_38 - y18_34 - y15_47 - y26_47 - y0_4 - y7_52 - y27_30 - y18_61 - y8_26 - y29_58 - y8_35 - y0_40 - y52_59 - y10_53 - y10_62 - y25_60 - y34_47 - y22_54 - y3_50 - y37_52 - y18_20 - y26_33 - y26_42 - y40_53 - y41_45 - y52_54 - y44_50 - y2_53 - y25_55 - y3_27 - y14_27 - y3_36 - y14_45 - y37_47 - y3_54 - y7_15 - y26_28 - y18_24 - y18_42 - y0_3 - y29_39 - y8_16 - y48_61 - y0_21 - y6_55 - y40_57 - y10_34 - y33_45 - y10_61 - y3_22 - y22_35 - y3_40 - y22_53 - y26_32 - y17_51 - y7_28 - y28_60 - y7_37 - y8_11 - y0_7 - y29_43 - y40_43 - y40_52 - y21_48 - y10_38 - y2_34 - y33_49 - y44_49 - y51_57 - y2_52 - y3_26 - y13_58 - y24_58 - y15_18 - y7_14 - y36_50 - y17_46 - y7_23 - y9_42 - y36_59 - y17_55 - y5_62 - y6_27 - y21_25 - y48_51 - y21_34 - y6_45 - y40_47 - y10_24 - y2_20 - y2_38 - y10_51 - y32_48 - y51_61 - y3_21 - y43_57 - y28_41 - y28_50 - y6_22 - y9_55 - y29_33 - y21_47 - y10_19 - y20_60 - y54_62 - y32_34 - y3_7 - y32_43 - y35_39 - y3_16 - y3_25 - y13_57 - y16_62 - y17_27 - y28_36 - y9_32 - y5_43 - y6_8 - y47_58 - y5_52 - y6_26 - y9_59 - y29_37 - y21_33 - y6_44 - y31_46 - y54_57 - y51_60 - y1_41 - y24_43 - y32_56 - y16_48 - y13_61 - y24_61 - y35_61 - y17_22 - y9_18 - y5_29 - y28_31 - y36_44 - y5_38 - y17_40 - y9_36 - y17_49 - y6_12 - y9_45 - y58_59 - y9_54 - y19_58 - y20_41 - y31_41 - y10_18 - y39_54 - y31_59 - y4_42 - y24_29 - y4_60 - y16_25 - y13_38 - y24_38 - y16_52 - y46_53 - y16_61 - y9_22 - y49_58 - y5_33 - y9_31 - y6_7 - y42_55 - y0_49 - y8_62 - y19_62 - y20_27 - y31_36 - y20_45 - y31_45 - y54_56 - y23_50 - y12_59 - y23_59 - y32_37 - y16_20 - y1_31 - y32_46 - y16_29 - y43_46 - y24_42 - y1_49 - y16_47 - y5_19 - y17_21 - y38_53 - y17_30 - y15_60 - y27_43 - y6_20 - y27_52 - y19_57 - y20_22 - y0_53 - y11_62 - y12_27 - y39_53 - y12_36 - y1_8 - y20_58 - y12_54 - y13_19 - y13_28 - y24_28 - y16_24 - y34_60 - y24_37 - y45_60 - y1_44 - y16_42 - y5_14 - y9_12 - y15_55 - y49_57 - y18_60 - y0_30 - y27_56 - y42_54 - y12_13 - y20_44 - y4_27 - y12_40 - y1_3 - y23_40 - y23_49 - y45_46 - y13_23 - y4_54 - y34_55 - y45_55 - y1_30 - y1_39 - y5_18 - y15_50 - y38_52 - y15_59 - y49_61 - y19_20 - y19_29 - y0_25 - y11_25 - y19_38 - y8_47 - y19_47 - y30_47 - y0_52 - y20_30 - y0_61 - y23_26 - y52_62 - y4_22 - y12_35 - y23_35 - y1_7 - y4_40 - y53_54 - y34_50 - y45_50 - y16_23 - y22_57 - y56_59 - y15_54 - y7_50 - y0_11 - y7_59 - y8_24 - y18_59 - y19_24 - y11_20 - y27_37 - y8_33 - y48_60 - y11_29 - y19_42 - y41_48 - y41_57 - y52_57 - y4_26 - y44_62 - y53_58 - y37_41 - y22_52 - y34_54 - y22_61 - y3_57 - y26_40 - y7_36 - y26_49 - y8_10 - y15_58 - y18_54 - y0_15 - y11_15 - y19_28 - y0_24 - y29_60 - y8_37 - y0_33 - y11_42 - y41_43 - y41_52 - y10_46 - y4_21 - y2_51 - y25_53 - y14_34 - y22_47 - y34_49 - y14_43 - y3_52 - y14_52 - y15_17 - y37_54 - y7_13 - y14_61 - y7_22 - y18_22 - y15_35 - y26_35 - y59_60 - y26_44 - y7_40 - y18_40 - y0_1 - y7_49 - y19_23 - y0_19 - y40_55 - y21_51 - y11_28 - y10_41 - y41_56 - y4_16 - y44_61 - y22_24 - y22_33 - y3_29 - y14_38 - y22_51 - y14_47 - y3_56
 Subject to
C1: x0+x1-y0_1 <=1 
C2: x0+x3-y0_3 <=1 
C3: x0+x4-y0_4 <=1 
C4: x0+x7-y0_7 <=1 
C5: x0+x9 <=1 
C6: x0+x10 <=1 
C7: x0+x11-y0_11 <=1 
C8: x0+x14-y0_14 <=1 
C9: x0+x15-y0_15 <=1 
C10: x0+x18-y0_18 <=1 
C11: x0+x19-y0_19 <=1 
C12: x0+x21-y0_21 <=1 
C13: x0+x23 <=1 
C14: x0+x24-y0_24 <=1 
C15: x0+x25-y0_25 <=1 
C16: x0+x26 <=1 
C17: x0+x27-y0_27 <=1 
C18: x0+x28 <=1 
C19: x0+x29 <=1 
C20: x0+x30-y0_30 <=1 
C21: x0+x31 <=1 
C22: x0+x33-y0_33 <=1 
C23: x0+x37 <=1 
C24: x0+x38 <=1 
C25: x0+x39 <=1 
C26: x0+x40-y0_40 <=1 
C27: x0+x41 <=1 
C28: x0+x42 <=1 
C29: x0+x49-y0_49 <=1 
C30: x0+x50-y0_50 <=1 
C31: x0+x51 <=1 
C32: x0+x52-y0_52 <=1 
C33: x0+x53-y0_53 <=1 
C34: x0+x55 <=1 
C35: x0+x58 <=1 
C36: x0+x59-y0_59 <=1 
C37: x0+x61-y0_61 <=1 
C38: x1+x2 <=1 
C39: x1+x3-y1_3 <=1 
C40: x1+x5-y1_5 <=1 
C41: x1+x6 <=1 
C42: x1+x7-y1_7 <=1 
C43: x1+x8-y1_8 <=1 
C44: x1+x10 <=1 
C45: x1+x12 <=1 
C46: x1+x13 <=1 
C47: x1+x18-y1_18 <=1 
C48: x1+x19 <=1 
C49: x1+x21 <=1 
C50: x1+x22 <=1 
C51: x1+x23 <=1 
C52: x1+x24 <=1 
C53: x1+x25 <=1 
C54: x1+x26 <=1 
C55: x1+x30-y1_30 <=1 
C56: x1+x31-y1_31 <=1 
C57: x1+x32-y1_32 <=1 
C58: x1+x35 <=1 
C59: x1+x37 <=1 
C60: x1+x39-y1_39 <=1 
C61: x1+x40 <=1 
C62: x1+x41-y1_41 <=1 
C63: x1+x42 <=1 
C64: x1+x43 <=1 
C65: x1+x44-y1_44 <=1 
C66: x1+x49-y1_49 <=1 
C67: x1+x51-y1_51 <=1 
C68: x1+x52-y1_52 <=1 
C69: x1+x53-y1_53 <=1 
C70: x1+x54 <=1 
C71: x1+x55 <=1 
C72: x1+x56 <=1 
C73: x1+x58 <=1 
C74: x1+x59 <=1 
C75: x1+x60 <=1 
C76: x1+x61-y1_61 <=1 
C77: x1+x62-y1_62 <=1 
C78: x2+x3-y2_3 <=1 
C79: x2+x4 <=1 
C80: x2+x5 <=1 
C81: x2+x7 <=1 
C82: x2+x9 <=1 
C83: x2+x11 <=1 
C84: x2+x13 <=1 
C85: x2+x14 <=1 
C86: x2+x16 <=1 
C87: x2+x19 <=1 
C88: x2+x20-y2_20 <=1 
C89: x2+x22 <=1 
C90: x2+x24 <=1 
C91: x2+x25 <=1 
C92: x2+x26-y2_26 <=1 
C93: x2+x27 <=1 
C94: x2+x33 <=1 
C95: x2+x34-y2_34 <=1 
C96: x2+x38-y2_38 <=1 
C97: x2+x39 <=1 
C98: x2+x40 <=1 
C99: x2+x45 <=1 
C100: x2+x46 <=1 
C101: x2+x47 <=1 
C102: x2+x48 <=1 
C103: x2+x49 <=1 
C104: x2+x50 <=1 
C105: x2+x51-y2_51 <=1 
C106: x2+x52-y2_52 <=1 
C107: x2+x53-y2_53 <=1 
C108: x2+x54-y2_54 <=1 
C109: x2+x56 <=1 
C110: x2+x57 <=1 
C111: x2+x59 <=1 
C112: x2+x60 <=1 
C113: x2+x61 <=1 
C114: x3+x4 <=1 
C115: x3+x6-y3_6 <=1 
C116: x3+x7-y3_7 <=1 
C117: x3+x10-y3_10 <=1 
C118: x3+x13 <=1 
C119: x3+x16-y3_16 <=1 
C120: x3+x18-y3_18 <=1 
C121: x3+x20 <=1 
C122: x3+x21-y3_21 <=1 
C123: x3+x22-y3_22 <=1 
C124: x3+x24-y3_24 <=1 
C125: x3+x25-y3_25 <=1 
C126: x3+x26-y3_26 <=1 
C127: x3+x27-y3_27 <=1 
C128: x3+x28 <=1 
C129: x3+x29-y3_29 <=1 
C130: x3+x30 <=1 
C131: x3+x31 <=1 
C132: x3+x34 <=1 
C133: x3+x36-y3_36 <=1 
C134: x3+x39 <=1 
C135: x3+x40-y3_40 <=1 
C136: x3+x43 <=1 
C137: x3+x44 <=1 
C138: x3+x45 <=1 
C139: x3+x46 <=1 
C140: x3+x47-y3_47 <=1 
C141: x3+x49 <=1 
C142: x3+x50-y3_50 <=1 
C143: x3+x51-y3_51 <=1 
C144: x3+x52-y3_52 <=1 
C145: x3+x54-y3_54 <=1 
C146: x3+x56-y3_56 <=1 
C147: x3+x57-y3_57 <=1 
C148: x3+x58 <=1 
C149: x3+x59 <=1 
C150: x3+x61 <=1 
C151: x3+x62 <=1 
C152: x4+x5 <=1 
C153: x4+x6-y4_6 <=1 
C154: x4+x7 <=1 
C155: x4+x8 <=1 
C156: x4+x9 <=1 
C157: x4+x11-y4_11 <=1 
C158: x4+x15 <=1 
C159: x4+x16-y4_16 <=1 
C160: x4+x17 <=1 
C161: x4+x18 <=1 
C162: x4+x19 <=1 
C163: x4+x21-y4_21 <=1 
C164: x4+x22-y4_22 <=1 
C165: x4+x23 <=1 
C166: x4+x24 <=1 
C167: x4+x26-y4_26 <=1 
C168: x4+x27-y4_27 <=1 
C169: x4+x28 <=1 
C170: x4+x29 <=1 
C171: x4+x30 <=1 
C172: x4+x31 <=1 
C173: x4+x34 <=1 
C174: x4+x36 <=1 
C175: x4+x38-y4_38 <=1 
C176: x4+x39 <=1 
C177: x4+x40-y4_40 <=1 
C178: x4+x41 <=1 
C179: x4+x42-y4_42 <=1 
C180: x4+x44-y4_44 <=1 
C181: x4+x45 <=1 
C182: x4+x46 <=1 
C183: x4+x48 <=1 
C184: x4+x49-y4_49 <=1 
C185: x4+x50 <=1 
C186: x4+x53-y4_53 <=1 
C187: x4+x54-y4_54 <=1 
C188: x4+x56 <=1 
C189: x4+x58 <=1 
C190: x4+x60-y4_60 <=1 
C191: x4+x61-y4_61 <=1 
C192: x4+x62-y4_62 <=1 
C193: x5+x6-y5_6 <=1 
C194: x5+x10 <=1 
C195: x5+x11 <=1 
C196: x5+x12 <=1 
C197: x5+x14-y5_14 <=1 
C198: x5+x15 <=1 
C199: x5+x16 <=1 
C200: x5+x17 <=1 
C201: x5+x18-y5_18 <=1 
C202: x5+x19-y5_19 <=1 
C203: x5+x28 <=1 
C204: x5+x29-y5_29 <=1 
C205: x5+x30 <=1 
C206: x5+x31 <=1 
C207: x5+x32 <=1 
C208: x5+x33-y5_33 <=1 
C209: x5+x36 <=1 
C210: x5+x38-y5_38 <=1 
C211: x5+x39 <=1 
C212: x5+x41 <=1 
C213: x5+x43-y5_43 <=1 
C214: x5+x45-y5_45 <=1 
C215: x5+x46 <=1 
C216: x5+x50-y5_50 <=1 
C217: x5+x51 <=1 
C218: x5+x52-y5_52 <=1 
C219: x5+x54-y5_54 <=1 
C220: x5+x55 <=1 
C221: x5+x58 <=1 
C222: x5+x60-y5_60 <=1 
C223: x5+x62-y5_62 <=1 
C224: x6+x7-y6_7 <=1 
C225: x6+x8-y6_8 <=1 
C226: x6+x9 <=1 
C227: x6+x10-y6_10 <=1 
C228: x6+x11 <=1 
C229: x6+x12-y6_12 <=1 
C230: x6+x14-y6_14 <=1 
C231: x6+x16 <=1 
C232: x6+x19 <=1 
C233: x6+x20-y6_20 <=1 
C234: x6+x22-y6_22 <=1 
C235: x6+x26-y6_26 <=1 
C236: x6+x27-y6_27 <=1 
C237: x6+x30 <=1 
C238: x6+x31 <=1 
C239: x6+x33 <=1 
C240: x6+x34 <=1 
C241: x6+x35 <=1 
C242: x6+x36 <=1 
C243: x6+x38 <=1 
C244: x6+x40 <=1 
C245: x6+x42 <=1 
C246: x6+x43 <=1 
C247: x6+x44-y6_44 <=1 
C248: x6+x45-y6_45 <=1 
C249: x6+x46 <=1 
C250: x6+x48-y6_48 <=1 
C251: x6+x49 <=1 
C252: x6+x50 <=1 
C253: x6+x51 <=1 
C254: x6+x54 <=1 
C255: x6+x55-y6_55 <=1 
C256: x6+x56-y6_56 <=1 
C257: x6+x57 <=1 
C258: x6+x61 <=1 
C259: x6+x62 <=1 
C260: x7+x9 <=1 
C261: x7+x11-y7_11 <=1 
C262: x7+x12-y7_12 <=1 
C263: x7+x13-y7_13 <=1 
C264: x7+x14-y7_14 <=1 
C265: x7+x15-y7_15 <=1 
C266: x7+x16-y7_16 <=1 
C267: x7+x17 <=1 
C268: x7+x18 <=1 
C269: x7+x21-y7_21 <=1 
C270: x7+x22-y7_22 <=1 
C271: x7+x23-y7_23 <=1 
C272: x7+x25 <=1 
C273: x7+x26-y7_26 <=1 
C274: x7+x28-y7_28 <=1 
C275: x7+x30-y7_30 <=1 
C276: x7+x32 <=1 
C277: x7+x33 <=1 
C278: x7+x36-y7_36 <=1 
C279: x7+x37-y7_37 <=1 
C280: x7+x38 <=1 
C281: x7+x39-y7_39 <=1 
C282: x7+x40-y7_40 <=1 
C283: x7+x41 <=1 
C284: x7+x44 <=1 
C285: x7+x45 <=1 
C286: x7+x48 <=1 
C287: x7+x49-y7_49 <=1 
C288: x7+x50-y7_50 <=1 
C289: x7+x51 <=1 
C290: x7+x52-y7_52 <=1 
C291: x7+x54 <=1 
C292: x7+x55 <=1 
C293: x7+x56 <=1 
C294: x7+x57-y7_57 <=1 
C295: x7+x59-y7_59 <=1 
C296: x8+x10-y8_10 <=1 
C297: x8+x11-y8_11 <=1 
C298: x8+x13 <=1 
C299: x8+x14 <=1 
C300: x8+x16-y8_16 <=1 
C301: x8+x18 <=1 
C302: x8+x19 <=1 
C303: x8+x20 <=1 
C304: x8+x21 <=1 
C305: x8+x22 <=1 
C306: x8+x23 <=1 
C307: x8+x24-y8_24 <=1 
C308: x8+x26-y8_26 <=1 
C309: x8+x27 <=1 
C310: x8+x28 <=1 
C311: x8+x29 <=1 
C312: x8+x30 <=1 
C313: x8+x31 <=1 
C314: x8+x32-y8_32 <=1 
C315: x8+x33-y8_33 <=1 
C316: x8+x35-y8_35 <=1 
C317: x8+x37-y8_37 <=1 
C318: x8+x40-y8_40 <=1 
C319: x8+x41-y8_41 <=1 
C320: x8+x42 <=1 
C321: x8+x43 <=1 
C322: x8+x44 <=1 
C323: x8+x45 <=1 
C324: x8+x46-y8_46 <=1 
C325: x8+x47-y8_47 <=1 
C326: x8+x49-y8_49 <=1 
C327: x8+x50-y8_50 <=1 
C328: x8+x51-y8_51 <=1 
C329: x8+x52 <=1 
C330: x8+x53 <=1 
C331: x8+x55-y8_55 <=1 
C332: x8+x56 <=1 
C333: x8+x58 <=1 
C334: x8+x59 <=1 
C335: x8+x60 <=1 
C336: x8+x62-y8_62 <=1 
C337: x9+x10 <=1 
C338: x9+x11-y9_11 <=1 
C339: x9+x12-y9_12 <=1 
C340: x9+x14 <=1 
C341: x9+x18-y9_18 <=1 
C342: x9+x22-y9_22 <=1 
C343: x9+x23 <=1 
C344: x9+x25 <=1 
C345: x9+x27 <=1 
C346: x9+x28-y9_28 <=1 
C347: x9+x29 <=1 
C348: x9+x31-y9_31 <=1 
C349: x9+x32-y9_32 <=1 
C350: x9+x33-y9_33 <=1 
C351: x9+x36-y9_36 <=1 
C352: x9+x38-y9_38 <=1 
C353: x9+x39-y9_39 <=1 
C354: x9+x40 <=1 
C355: x9+x41 <=1 
C356: x9+x42-y9_42 <=1 
C357: x9+x43-y9_43 <=1 
C358: x9+x45-y9_45 <=1 
C359: x9+x46 <=1 
C360: x9+x47-y9_47 <=1 
C361: x9+x48-y9_48 <=1 
C362: x9+x51 <=1 
C363: x9+x52 <=1 
C364: x9+x54-y9_54 <=1 
C365: x9+x55-y9_55 <=1 
C366: x9+x56 <=1 
C367: x9+x57-y9_57 <=1 
C368: x9+x59-y9_59 <=1 
C369: x9+x61 <=1 
C370: x10+x11 <=1 
C371: x10+x12-y10_12 <=1 
C372: x10+x15 <=1 
C373: x10+x16 <=1 
C374: x10+x17 <=1 
C375: x10+x18-y10_18 <=1 
C376: x10+x19-y10_19 <=1 
C377: x10+x21-y10_21 <=1 
C378: x10+x22 <=1 
C379: x10+x23 <=1 
C380: x10+x24-y10_24 <=1 
C381: x10+x25 <=1 
C382: x10+x26-y10_26 <=1 
C383: x10+x28 <=1 
C384: x10+x31-y10_31 <=1 
C385: x10+x34-y10_34 <=1 
C386: x10+x35-y10_35 <=1 
C387: x10+x38-y10_38 <=1 
C388: x10+x41-y10_41 <=1 
C389: x10+x43 <=1 
C390: x10+x45 <=1 
C391: x10+x46-y10_46 <=1 
C392: x10+x50 <=1 
C393: x10+x51-y10_51 <=1 
C394: x10+x53-y10_53 <=1 
C395: x10+x54 <=1 
C396: x10+x55 <=1 
C397: x10+x58 <=1 
C398: x10+x60 <=1 
C399: x10+x61-y10_61 <=1 
C400: x10+x62-y10_62 <=1 
C401: x11+x12 <=1 
C402: x11+x14 <=1 
C403: x11+x15-y11_15 <=1 
C404: x11+x18 <=1 
C405: x11+x20-y11_20 <=1 
C406: x11+x21 <=1 
C407: x11+x22 <=1 
C408: x11+x25-y11_25 <=1 
C409: x11+x26 <=1 
C410: x11+x27 <=1 
C411: x11+x28-y11_28 <=1 
C412: x11+x29-y11_29 <=1 
C413: x11+x30 <=1 
C414: x11+x31 <=1 
C415: x11+x33 <=1 
C416: x11+x35 <=1 
C417: x11+x36-y11_36 <=1 
C418: x11+x37 <=1 
C419: x11+x38 <=1 
C420: x11+x42-y11_42 <=1 
C421: x11+x46-y11_46 <=1 
C422: x11+x48 <=1 
C423: x11+x50-y11_50 <=1 
C424: x11+x55 <=1 
C425: x11+x56 <=1 
C426: x11+x57 <=1 
C427: x11+x62-y11_62 <=1 
C428: x12+x13-y12_13 <=1 
C429: x12+x14 <=1 
C430: x12+x15-y12_15 <=1 
C431: x12+x20 <=1 
C432: x12+x23 <=1 
C433: x12+x25-y12_25 <=1 
C434: x12+x26 <=1 
C435: x12+x27-y12_27 <=1 
C436: x12+x28 <=1 
C437: x12+x29-y12_29 <=1 
C438: x12+x32 <=1 
C439: x12+x33 <=1 
C440: x12+x34-y12_34 <=1 
C441: x12+x35-y12_35 <=1 
C442: x12+x36-y12_36 <=1 
C443: x12+x37 <=1 
C444: x12+x39-y12_39 <=1 
C445: x12+x40-y12_40 <=1 
C446: x12+x42 <=1 
C447: x12+x43-y12_43 <=1 
C448: x12+x47-y12_47 <=1 
C449: x12+x49 <=1 
C450: x12+x50 <=1 
C451: x12+x51 <=1 
C452: x12+x53 <=1 
C453: x12+x54-y12_54 <=1 
C454: x12+x59-y12_59 <=1 
C455: x12+x61-y12_61 <=1 
C456: x13+x14 <=1 
C457: x13+x16-y13_16 <=1 
C458: x13+x17 <=1 
C459: x13+x19-y13_19 <=1 
C460: x13+x22 <=1 
C461: x13+x23-y13_23 <=1 
C462: x13+x26-y13_26 <=1 
C463: x13+x27 <=1 
C464: x13+x28-y13_28 <=1 
C465: x13+x29 <=1 
C466: x13+x31-y13_31 <=1 
C467: x13+x32-y13_32 <=1 
C468: x13+x34 <=1 
C469: x13+x35-y13_35 <=1 
C470: x13+x38-y13_38 <=1 
C471: x13+x39 <=1 
C472: x13+x40-y13_40 <=1 
C473: x13+x41 <=1 
C474: x13+x42 <=1 
C475: x13+x43 <=1 
C476: x13+x44 <=1 
C477: x13+x46-y13_46 <=1 
C478: x13+x47 <=1 
C479: x13+x57-y13_57 <=1 
C480: x13+x58-y13_58 <=1 
C481: x13+x60 <=1 
C482: x13+x61-y13_61 <=1 
C483: x14+x15-y14_15 <=1 
C484: x14+x17 <=1 
C485: x14+x18 <=1 
C486: x14+x20 <=1 
C487: x14+x21 <=1 
C488: x14+x24 <=1 
C489: x14+x26 <=1 
C490: x14+x27-y14_27 <=1 
C491: x14+x28 <=1 
C492: x14+x30 <=1 
C493: x14+x31 <=1 
C494: x14+x34-y14_34 <=1 
C495: x14+x38-y14_38 <=1 
C496: x14+x41 <=1 
C497: x14+x43-y14_43 <=1 
C498: x14+x45-y14_45 <=1 
C499: x14+x46 <=1 
C500: x14+x47-y14_47 <=1 
C501: x14+x49 <=1 
C502: x14+x50 <=1 
C503: x14+x52-y14_52 <=1 
C504: x14+x53 <=1 
C505: x14+x55-y14_55 <=1 
C506: x14+x56 <=1 
C507: x14+x59 <=1 
C508: x14+x60-y14_60 <=1 
C509: x14+x61-y14_61 <=1 
C510: x15+x17-y15_17 <=1 
C511: x15+x18-y15_18 <=1 
C512: x15+x19 <=1 
C513: x15+x21-y15_21 <=1 
C514: x15+x22 <=1 
C515: x15+x23 <=1 
C516: x15+x25 <=1 
C517: x15+x27 <=1 
C518: x15+x29-y15_29 <=1 
C519: x15+x30-y15_30 <=1 
C520: x15+x31 <=1 
C521: x15+x33 <=1 
C522: x15+x34-y15_34 <=1 
C523: x15+x35-y15_35 <=1 
C524: x15+x37 <=1 
C525: x15+x38-y15_38 <=1 
C526: x15+x39-y15_39 <=1 
C527: x15+x40 <=1 
C528: x15+x44 <=1 
C529: x15+x45 <=1 
C530: x15+x47-y15_47 <=1 
C531: x15+x48-y15_48 <=1 
C532: x15+x50-y15_50 <=1 
C533: x15+x51 <=1 
C534: x15+x52 <=1 
C535: x15+x54-y15_54 <=1 
C536: x15+x55-y15_55 <=1 
C537: x15+x57-y15_57 <=1 
C538: x15+x58-y15_58 <=1 
C539: x15+x59-y15_59 <=1 
C540: x15+x60-y15_60 <=1 
C541: x15+x61-y15_61 <=1 
C542: x16+x19 <=1 
C543: x16+x20-y16_20 <=1 
C544: x16+x21-y16_21 <=1 
C545: x16+x22-y16_22 <=1 
C546: x16+x23-y16_23 <=1 
C547: x16+x24-y16_24 <=1 
C548: x16+x25-y16_25 <=1 
C549: x16+x27-y16_27 <=1 
C550: x16+x29-y16_29 <=1 
C551: x16+x30-y16_30 <=1 
C552: x16+x31-y16_31 <=1 
C553: x16+x32 <=1 
C554: x16+x34 <=1 
C555: x16+x36-y16_36 <=1 
C556: x16+x39 <=1 
C557: x16+x41 <=1 
C558: x16+x42-y16_42 <=1 
C559: x16+x44 <=1 
C560: x16+x45-y16_45 <=1 
C561: x16+x46 <=1 
C562: x16+x47-y16_47 <=1 
C563: x16+x48-y16_48 <=1 
C564: x16+x49-y16_49 <=1 
C565: x16+x52-y16_52 <=1 
C566: x16+x53 <=1 
C567: x16+x54-y16_54 <=1 
C568: x16+x60-y16_60 <=1 
C569: x16+x61-y16_61 <=1 
C570: x16+x62-y16_62 <=1 
C571: x17+x21-y17_21 <=1 
C572: x17+x22-y17_22 <=1 
C573: x17+x24 <=1 
C574: x17+x25-y17_25 <=1 
C575: x17+x27-y17_27 <=1 
C576: x17+x29-y17_29 <=1 
C577: x17+x30-y17_30 <=1 
C578: x17+x33-y17_33 <=1 
C579: x17+x34-y17_34 <=1 
C580: x17+x38-y17_38 <=1 
C581: x17+x39-y17_39 <=1 
C582: x17+x40-y17_40 <=1 
C583: x17+x42-y17_42 <=1 
C584: x17+x43 <=1 
C585: x17+x44-y17_44 <=1 
C586: x17+x45 <=1 
C587: x17+x46-y17_46 <=1 
C588: x17+x47 <=1 
C589: x17+x48 <=1 
C590: x17+x49-y17_49 <=1 
C591: x17+x51-y17_51 <=1 
C592: x17+x52-y17_52 <=1 
C593: x17+x53 <=1 
C594: x17+x54 <=1 
C595: x17+x55-y17_55 <=1 
C596: x17+x56 <=1 
C597: x17+x60 <=1 
C598: x18+x19 <=1 
C599: x18+x20-y18_20 <=1 
C600: x18+x21 <=1 
C601: x18+x22-y18_22 <=1 
C602: x18+x24-y18_24 <=1 
C603: x18+x25-y18_25 <=1 
C604: x18+x28 <=1 
C605: x18+x29 <=1 
C606: x18+x30 <=1 
C607: x18+x32 <=1 
C608: x18+x33 <=1 
C609: x18+x34-y18_34 <=1 
C610: x18+x35 <=1 
C611: x18+x38 <=1 
C612: x18+x39-y18_39 <=1 
C613: x18+x40-y18_40 <=1 
C614: x18+x42-y18_42 <=1 
C615: x18+x44-y18_44 <=1 
C616: x18+x47 <=1 
C617: x18+x48 <=1 
C618: x18+x50 <=1 
C619: x18+x52 <=1 
C620: x18+x53 <=1 
C621: x18+x54-y18_54 <=1 
C622: x18+x55 <=1 
C623: x18+x57 <=1 
C624: x18+x59-y18_59 <=1 
C625: x18+x60-y18_60 <=1 
C626: x18+x61-y18_61 <=1 
C627: x19+x20-y19_20 <=1 
C628: x19+x23-y19_23 <=1 
C629: x19+x24-y19_24 <=1 
C630: x19+x27-y19_27 <=1 
C631: x19+x28-y19_28 <=1 
C632: x19+x29-y19_29 <=1 
C633: x19+x31-y19_31 <=1 
C634: x19+x32-y19_32 <=1 
C635: x19+x34 <=1 
C636: x19+x35 <=1 
C637: x19+x36 <=1 
C638: x19+x38-y19_38 <=1 
C639: x19+x42-y19_42 <=1 
C640: x19+x44 <=1 
C641: x19+x45 <=1 
C642: x19+x46 <=1 
C643: x19+x47-y19_47 <=1 
C644: x19+x49 <=1 
C645: x19+x51 <=1 
C646: x19+x52 <=1 
C647: x19+x54 <=1 
C648: x19+x55-y19_55 <=1 
C649: x19+x57-y19_57 <=1 
C650: x19+x58-y19_58 <=1 
C651: x19+x59 <=1 
C652: x19+x60-y19_60 <=1 
C653: x19+x62-y19_62 <=1 
C654: x20+x22-y20_22 <=1 
C655: x20+x23 <=1 
C656: x20+x26 <=1 
C657: x20+x27-y20_27 <=1 
C658: x20+x28 <=1 
C659: x20+x29-y20_29 <=1 
C660: x20+x30-y20_30 <=1 
C661: x20+x32 <=1 
C662: x20+x33 <=1 
C663: x20+x34 <=1 
C664: x20+x35 <=1 
C665: x20+x37 <=1 
C666: x20+x38 <=1 
C667: x20+x41-y20_41 <=1 
C668: x20+x42 <=1 
C669: x20+x43 <=1 
C670: x20+x44-y20_44 <=1 
C671: x20+x45-y20_45 <=1 
C672: x20+x52-y20_52 <=1 
C673: x20+x53-y20_53 <=1 
C674: x20+x56 <=1 
C675: x20+x58-y20_58 <=1 
C676: x20+x59 <=1 
C677: x20+x60-y20_60 <=1 
C678: x21+x23 <=1 
C679: x21+x25-y21_25 <=1 
C680: x21+x31-y21_31 <=1 
C681: x21+x33-y21_33 <=1 
C682: x21+x34-y21_34 <=1 
C683: x21+x35 <=1 
C684: x21+x37-y21_37 <=1 
C685: x21+x39 <=1 
C686: x21+x40 <=1 
C687: x21+x42 <=1 
C688: x21+x44 <=1 
C689: x21+x46-y21_46 <=1 
C690: x21+x47-y21_47 <=1 
C691: x21+x48-y21_48 <=1 
C692: x21+x49 <=1 
C693: x21+x50-y21_50 <=1 
C694: x21+x51-y21_51 <=1 
C695: x21+x52 <=1 
C696: x21+x53 <=1 
C697: x21+x54-y21_54 <=1 
C698: x21+x55 <=1 
C699: x21+x61 <=1 
C700: x21+x62 <=1 
C701: x22+x23-y22_23 <=1 
C702: x22+x24-y22_24 <=1 
C703: x22+x26 <=1 
C704: x22+x28 <=1 
C705: x22+x29 <=1 
C706: x22+x30 <=1 
C707: x22+x31 <=1 
C708: x22+x32-y22_32 <=1 
C709: x22+x33-y22_33 <=1 
C710: x22+x35-y22_35 <=1 
C711: x22+x38 <=1 
C712: x22+x40 <=1 
C713: x22+x41 <=1 
C714: x22+x43 <=1 
C715: x22+x44 <=1 
C716: x22+x45 <=1 
C717: x22+x47-y22_47 <=1 
C718: x22+x50-y22_50 <=1 
C719: x22+x51-y22_51 <=1 
C720: x22+x52-y22_52 <=1 
C721: x22+x53-y22_53 <=1 
C722: x22+x54-y22_54 <=1 
C723: x22+x55-y22_55 <=1 
C724: x22+x57-y22_57 <=1 
C725: x22+x58 <=1 
C726: x22+x60 <=1 
C727: x22+x61-y22_61 <=1 
C728: x22+x62 <=1 
C729: x23+x24 <=1 
C730: x23+x25-y23_25 <=1 
C731: x23+x26-y23_26 <=1 
C732: x23+x27 <=1 
C733: x23+x31 <=1 
C734: x23+x32 <=1 
C735: x23+x35-y23_35 <=1 
C736: x23+x39-y23_39 <=1 
C737: x23+x40-y23_40 <=1 
C738: x23+x41 <=1 
C739: x23+x42-y23_42 <=1 
C740: x23+x46 <=1 
C741: x23+x47-y23_47 <=1 
C742: x23+x49-y23_49 <=1 
C743: x23+x50-y23_50 <=1 
C744: x23+x52-y23_52 <=1 
C745: x23+x54 <=1 
C746: x23+x55 <=1 
C747: x23+x56-y23_56 <=1 
C748: x23+x58-y23_58 <=1 
C749: x23+x59-y23_59 <=1 
C750: x23+x60 <=1 
C751: x23+x61 <=1 
C752: x24+x25 <=1 
C753: x24+x26 <=1 
C754: x24+x28-y24_28 <=1 
C755: x24+x29-y24_29 <=1 
C756: x24+x30 <=1 
C757: x24+x31 <=1 
C758: x24+x32-y24_32 <=1 
C759: x24+x33 <=1 
C760: x24+x34 <=1 
C761: x24+x35-y24_35 <=1 
C762: x24+x37-y24_37 <=1 
C763: x24+x38-y24_38 <=1 
C764: x24+x39 <=1 
C765: x24+x40 <=1 
C766: x24+x42-y24_42 <=1 
C767: x24+x43-y24_43 <=1 
C768: x24+x44 <=1 
C769: x24+x45 <=1 
C770: x24+x46 <=1 
C771: x24+x49 <=1 
C772: x24+x50-y24_50 <=1 
C773: x24+x52 <=1 
C774: x24+x56 <=1 
C775: x24+x57 <=1 
C776: x24+x58-y24_58 <=1 
C777: x24+x59-y24_59 <=1 
C778: x24+x60-y24_60 <=1 
C779: x24+x61-y24_61 <=1 
C780: x25+x28 <=1 
C781: x25+x29 <=1 
C782: x25+x30 <=1 
C783: x25+x31 <=1 
C784: x25+x32 <=1 
C785: x25+x33-y25_33 <=1 
C786: x25+x34 <=1 
C787: x25+x35 <=1 
C788: x25+x36 <=1 
C789: x25+x37 <=1 
C790: x25+x39 <=1 
C791: x25+x40 <=1 
C792: x25+x41 <=1 
C793: x25+x42-y25_42 <=1 
C794: x25+x43 <=1 
C795: x25+x53-y25_53 <=1 
C796: x25+x55-y25_55 <=1 
C797: x25+x56-y25_56 <=1 
C798: x25+x58 <=1 
C799: x25+x59 <=1 
C800: x25+x60-y25_60 <=1 
C801: x25+x62 <=1 
C802: x26+x28-y26_28 <=1 
C803: x26+x30 <=1 
C804: x26+x32-y26_32 <=1 
C805: x26+x33-y26_33 <=1 
C806: x26+x35-y26_35 <=1 
C807: x26+x36 <=1 
C808: x26+x38 <=1 
C809: x26+x39 <=1 
C810: x26+x40-y26_40 <=1 
C811: x26+x41 <=1 
C812: x26+x42-y26_42 <=1 
C813: x26+x44-y26_44 <=1 
C814: x26+x46 <=1 
C815: x26+x47-y26_47 <=1 
C816: x26+x48-y26_48 <=1 
C817: x26+x49-y26_49 <=1 
C818: x26+x50 <=1 
C819: x26+x53-y26_53 <=1 
C820: x26+x54 <=1 
C821: x26+x56 <=1 
C822: x26+x57 <=1 
C823: x26+x59 <=1 
C824: x26+x62-y26_62 <=1 
C825: x27+x30-y27_30 <=1 
C826: x27+x31-y27_31 <=1 
C827: x27+x34 <=1 
C828: x27+x35-y27_35 <=1 
C829: x27+x37-y27_37 <=1 
C830: x27+x38 <=1 
C831: x27+x39 <=1 
C832: x27+x40-y27_40 <=1 
C833: x27+x41 <=1 
C834: x27+x42 <=1 
C835: x27+x43-y27_43 <=1 
C836: x27+x44 <=1 
C837: x27+x45-y27_45 <=1 
C838: x27+x47 <=1 
C839: x27+x49 <=1 
C840: x27+x50 <=1 
C841: x27+x51 <=1 
C842: x27+x52-y27_52 <=1 
C843: x27+x53-y27_53 <=1 
C844: x27+x54 <=1 
C845: x27+x56-y27_56 <=1 
C846: x27+x58 <=1 
C847: x27+x59 <=1 
C848: x27+x60 <=1 
C849: x28+x29-y28_29 <=1 
C850: x28+x31-y28_31 <=1 
C851: x28+x33-y28_33 <=1 
C852: x28+x36-y28_36 <=1 
C853: x28+x37 <=1 
C854: x28+x39 <=1 
C855: x28+x41-y28_41 <=1 
C856: x28+x42 <=1 
C857: x28+x43-y28_43 <=1 
C858: x28+x44 <=1 
C859: x28+x47-y28_47 <=1 
C860: x28+x50-y28_50 <=1 
C861: x28+x52-y28_52 <=1 
C862: x28+x53 <=1 
C863: x28+x54 <=1 
C864: x28+x55 <=1 
C865: x28+x56-y28_56 <=1 
C866: x28+x58-y28_58 <=1 
C867: x28+x59 <=1 
C868: x28+x60-y28_60 <=1 
C869: x29+x31 <=1 
C870: x29+x32-y29_32 <=1 
C871: x29+x33-y29_33 <=1 
C872: x29+x35 <=1 
C873: x29+x36 <=1 
C874: x29+x37-y29_37 <=1 
C875: x29+x38 <=1 
C876: x29+x39-y29_39 <=1 
C877: x29+x40 <=1 
C878: x29+x42 <=1 
C879: x29+x43-y29_43 <=1 
C880: x29+x44 <=1 
C881: x29+x45-y29_45 <=1 
C882: x29+x47 <=1 
C883: x29+x49 <=1 
C884: x29+x52 <=1 
C885: x29+x56 <=1 
C886: x29+x58-y29_58 <=1 
C887: x29+x59-y29_59 <=1 
C888: x29+x60-y29_60 <=1 
C889: x29+x61 <=1 
C890: x30+x32 <=1 
C891: x30+x36 <=1 
C892: x30+x40 <=1 
C893: x30+x41 <=1 
C894: x30+x43 <=1 
C895: x30+x46 <=1 
C896: x30+x47-y30_47 <=1 
C897: x30+x51 <=1 
C898: x30+x52 <=1 
C899: x30+x53 <=1 
C900: x30+x55-y30_55 <=1 
C901: x30+x56 <=1 
C902: x30+x57 <=1 
C903: x30+x58 <=1 
C904: x30+x60-y30_60 <=1 
C905: x31+x32 <=1 
C906: x31+x36-y31_36 <=1 
C907: x31+x37 <=1 
C908: x31+x39 <=1 
C909: x31+x41-y31_41 <=1 
C910: x31+x42 <=1 
C911: x31+x43 <=1 
C912: x31+x45-y31_45 <=1 
C913: x31+x46-y31_46 <=1 
C914: x31+x47 <=1 
C915: x31+x50 <=1 
C916: x31+x53-y31_53 <=1 
C917: x31+x55 <=1 
C918: x31+x56 <=1 
C919: x31+x59-y31_59 <=1 
C920: x31+x60 <=1 
C921: x32+x33 <=1 
C922: x32+x34-y32_34 <=1 
C923: x32+x35 <=1 
C924: x32+x36 <=1 
C925: x32+x37-y32_37 <=1 
C926: x32+x38 <=1 
C927: x32+x39-y32_39 <=1 
C928: x32+x40-y32_40 <=1 
C929: x32+x43-y32_43 <=1 
C930: x32+x44 <=1 
C931: x32+x45-y32_45 <=1 
C932: x32+x46-y32_46 <=1 
C933: x32+x48-y32_48 <=1 
C934: x32+x50-y32_50 <=1 
C935: x32+x51 <=1 
C936: x32+x52 <=1 
C937: x32+x55-y32_55 <=1 
C938: x32+x56-y32_56 <=1 
C939: x32+x57 <=1 
C940: x32+x60-y32_60 <=1 
C941: x32+x61 <=1 
C942: x32+x62 <=1 
C943: x33+x35 <=1 
C944: x33+x42-y33_42 <=1 
C945: x33+x45-y33_45 <=1 
C946: x33+x47-y33_47 <=1 
C947: x33+x48 <=1 
C948: x33+x49-y33_49 <=1 
C949: x33+x53 <=1 
C950: x33+x56-y33_56 <=1 
C951: x33+x58 <=1 
C952: x33+x60 <=1 
C953: x33+x61 <=1 
C954: x34+x36 <=1 
C955: x34+x38 <=1 
C956: x34+x43-y34_43 <=1 
C957: x34+x45 <=1 
C958: x34+x46 <=1 
C959: x34+x47-y34_47 <=1 
C960: x34+x49-y34_49 <=1 
C961: x34+x50-y34_50 <=1 
C962: x34+x52-y34_52 <=1 
C963: x34+x54-y34_54 <=1 
C964: x34+x55-y34_55 <=1 
C965: x34+x56 <=1 
C966: x34+x57-y34_57 <=1 
C967: x34+x58-y34_58 <=1 
C968: x34+x59 <=1 
C969: x34+x60-y34_60 <=1 
C970: x34+x62-y34_62 <=1 
C971: x35+x36 <=1 
C972: x35+x37 <=1 
C973: x35+x39-y35_39 <=1 
C974: x35+x40-y35_40 <=1 
C975: x35+x41-y35_41 <=1 
C976: x35+x43 <=1 
C977: x35+x44 <=1 
C978: x35+x45 <=1 
C979: x35+x46 <=1 
C980: x35+x48 <=1 
C981: x35+x49 <=1 
C982: x35+x51 <=1 
C983: x35+x54-y35_54 <=1 
C984: x35+x57 <=1 
C985: x35+x59 <=1 
C986: x35+x60 <=1 
C987: x35+x61-y35_61 <=1 
C988: x36+x37-y36_37 <=1 
C989: x36+x42-y36_42 <=1 
C990: x36+x43 <=1 
C991: x36+x44-y36_44 <=1 
C992: x36+x45 <=1 
C993: x36+x46 <=1 
C994: x36+x48-y36_48 <=1 
C995: x36+x50-y36_50 <=1 
C996: x36+x51 <=1 
C997: x36+x53 <=1 
C998: x36+x57 <=1 
C999: x36+x59-y36_59 <=1 
C1000: x36+x62 <=1 
C1001: x37+x38 <=1 
C1002: x37+x41-y37_41 <=1 
C1003: x37+x42 <=1 
C1004: x37+x43 <=1 
C1005: x37+x44-y37_44 <=1 
C1006: x37+x45 <=1 
C1007: x37+x47-y37_47 <=1 
C1008: x37+x49 <=1 
C1009: x37+x50 <=1 
C1010: x37+x51 <=1 
C1011: x37+x52-y37_52 <=1 
C1012: x37+x53 <=1 
C1013: x37+x54-y37_54 <=1 
C1014: x37+x55 <=1 
C1015: x37+x59 <=1 
C1016: x37+x60 <=1 
C1017: x37+x61 <=1 
C1018: x37+x62 <=1 
C1019: x38+x41-y38_41 <=1 
C1020: x38+x45-y38_45 <=1 
C1021: x38+x46-y38_46 <=1 
C1022: x38+x50-y38_50 <=1 
C1023: x38+x52-y38_52 <=1 
C1024: x38+x53-y38_53 <=1 
C1025: x38+x54 <=1 
C1026: x38+x55-y38_55 <=1 
C1027: x38+x56 <=1 
C1028: x38+x57 <=1 
C1029: x38+x58 <=1 
C1030: x38+x60 <=1 
C1031: x39+x42-y39_42 <=1 
C1032: x39+x46-y39_46 <=1 
C1033: x39+x47 <=1 
C1034: x39+x48 <=1 
C1035: x39+x50 <=1 
C1036: x39+x52-y39_52 <=1 
C1037: x39+x53-y39_53 <=1 
C1038: x39+x54-y39_54 <=1 
C1039: x39+x55 <=1 
C1040: x39+x58 <=1 
C1041: x39+x59 <=1 
C1042: x39+x60-y39_60 <=1 
C1043: x39+x61-y39_61 <=1 
C1044: x40+x41 <=1 
C1045: x40+x43-y40_43 <=1 
C1046: x40+x45 <=1 
C1047: x40+x46 <=1 
C1048: x40+x47-y40_47 <=1 
C1049: x40+x48 <=1 
C1050: x40+x49 <=1 
C1051: x40+x50-y40_50 <=1 
C1052: x40+x52-y40_52 <=1 
C1053: x40+x53-y40_53 <=1 
C1054: x40+x55-y40_55 <=1 
C1055: x40+x56 <=1 
C1056: x40+x57-y40_57 <=1 
C1057: x40+x58-y40_58 <=1 
C1058: x40+x59 <=1 
C1059: x40+x62 <=1 
C1060: x41+x42 <=1 
C1061: x41+x43-y41_43 <=1 
C1062: x41+x45-y41_45 <=1 
C1063: x41+x46 <=1 
C1064: x41+x47 <=1 
C1065: x41+x48-y41_48 <=1 
C1066: x41+x52-y41_52 <=1 
C1067: x41+x54 <=1 
C1068: x41+x56-y41_56 <=1 
C1069: x41+x57-y41_57 <=1 
C1070: x41+x58 <=1 
C1071: x41+x60 <=1 
C1072: x41+x61 <=1 
C1073: x41+x62 <=1 
C1074: x42+x44-y42_44 <=1 
C1075: x42+x45 <=1 
C1076: x42+x46 <=1 
C1077: x42+x47 <=1 
C1078: x42+x48 <=1 
C1079: x42+x49 <=1 
C1080: x42+x50 <=1 
C1081: x42+x51 <=1 
C1082: x42+x54-y42_54 <=1 
C1083: x42+x55-y42_55 <=1 
C1084: x42+x56-y42_56 <=1 
C1085: x42+x60 <=1 
C1086: x42+x62-y42_62 <=1 
C1087: x43+x46-y43_46 <=1 
C1088: x43+x49-y43_49 <=1 
C1089: x43+x50-y43_50 <=1 
C1090: x43+x53-y43_53 <=1 
C1091: x43+x54-y43_54 <=1 
C1092: x43+x56 <=1 
C1093: x43+x57-y43_57 <=1 
C1094: x43+x59-y43_59 <=1 
C1095: x43+x60 <=1 
C1096: x43+x61 <=1 
C1097: x44+x45 <=1 
C1098: x44+x47 <=1 
C1099: x44+x49-y44_49 <=1 
C1100: x44+x50-y44_50 <=1 
C1101: x44+x53 <=1 
C1102: x44+x56 <=1 
C1103: x44+x57 <=1 
C1104: x44+x58 <=1 
C1105: x44+x59 <=1 
C1106: x44+x60-y44_60 <=1 
C1107: x44+x61-y44_61 <=1 
C1108: x44+x62-y44_62 <=1 
C1109: x45+x46-y45_46 <=1 
C1110: x45+x49 <=1 
C1111: x45+x50-y45_50 <=1 
C1112: x45+x51 <=1 
C1113: x45+x52 <=1 
C1114: x45+x53-y45_53 <=1 
C1115: x45+x55-y45_55 <=1 
C1116: x45+x59 <=1 
C1117: x45+x60-y45_60 <=1 
C1118: x45+x61-y45_61 <=1 
C1119: x46+x48 <=1 
C1120: x46+x49 <=1 
C1121: x46+x50-y46_50 <=1 
C1122: x46+x51 <=1 
C1123: x46+x52 <=1 
C1124: x46+x53-y46_53 <=1 
C1125: x46+x54 <=1 
C1126: x46+x57 <=1 
C1127: x46+x58-y46_58 <=1 
C1128: x46+x59-y46_59 <=1 
C1129: x46+x60 <=1 
C1130: x46+x61 <=1 
C1131: x46+x62 <=1 
C1132: x47+x49 <=1 
C1133: x47+x50 <=1 
C1134: x47+x51-y47_51 <=1 
C1135: x47+x53-y47_53 <=1 
C1136: x47+x55 <=1 
C1137: x47+x58-y47_58 <=1 
C1138: x47+x61 <=1 
C1139: x47+x62 <=1 
C1140: x48+x51-y48_51 <=1 
C1141: x48+x52 <=1 
C1142: x48+x54 <=1 
C1143: x48+x55 <=1 
C1144: x48+x58 <=1 
C1145: x48+x59 <=1 
C1146: x48+x60-y48_60 <=1 
C1147: x48+x61-y48_61 <=1 
C1148: x48+x62 <=1 
C1149: x49+x51 <=1 
C1150: x49+x52 <=1 
C1151: x49+x54 <=1 
C1152: x49+x56 <=1 
C1153: x49+x57-y49_57 <=1 
C1154: x49+x58-y49_58 <=1 
C1155: x49+x59-y49_59 <=1 
C1156: x49+x60-y49_60 <=1 
C1157: x49+x61-y49_61 <=1 
C1158: x50+x51-y50_51 <=1 
C1159: x50+x52-y50_52 <=1 
C1160: x50+x53-y50_53 <=1 
C1161: x50+x56 <=1 
C1162: x50+x57-y50_57 <=1 
C1163: x50+x58 <=1 
C1164: x50+x60 <=1 
C1165: x50+x61-y50_61 <=1 
C1166: x51+x52 <=1 
C1167: x51+x56 <=1 
C1168: x51+x57-y51_57 <=1 
C1169: x51+x60-y51_60 <=1 
C1170: x51+x61-y51_61 <=1 
C1171: x52+x54-y52_54 <=1 
C1172: x52+x55 <=1 
C1173: x52+x57-y52_57 <=1 
C1174: x52+x58 <=1 
C1175: x52+x59-y52_59 <=1 
C1176: x52+x60 <=1 
C1177: x52+x61 <=1 
C1178: x52+x62-y52_62 <=1 
C1179: x53+x54-y53_54 <=1 
C1180: x53+x55 <=1 
C1181: x53+x58-y53_58 <=1 
C1182: x53+x59 <=1 
C1183: x53+x60 <=1 
C1184: x53+x62-y53_62 <=1 
C1185: x54+x55-y54_55 <=1 
C1186: x54+x56-y54_56 <=1 
C1187: x54+x57-y54_57 <=1 
C1188: x54+x58 <=1 
C1189: x54+x59 <=1 
C1190: x54+x60-y54_60 <=1 
C1191: x54+x62-y54_62 <=1 
C1192: x55+x57-y55_57 <=1 
C1193: x55+x60 <=1 
C1194: x55+x62 <=1 
C1195: x56+x58 <=1 
C1196: x56+x59-y56_59 <=1 
C1197: x56+x61-y56_61 <=1 
C1198: x56+x62 <=1 
C1199: x57+x58 <=1 
C1200: x57+x62 <=1 
C1201: x58+x59-y58_59 <=1 
C1202: x58+x61-y58_61 <=1 
C1203: x58+x62-y58_62 <=1 
C1204: x59+x60-y59_60 <=1 
C1205: x59+x62 <=1 
C1206: x60+x62 <=1 
C1207: x61+x62 <=1 

binary
x0
x1
x2
x3
x4
x5
x6
x7
x8
x9
x10
x11
x12
x13
x14
x15
x16
x17
x18
x19
x20
x21
x22
x23
x24
x25
x26
x27
x28
x29
x30
x31
x32
x33
x34
x35
x36
x37
x38
x39
x40
x41
x42
x43
x44
x45
x46
x47
x48
x49
x50
x51
x52
x53
x54
x55
x56
x57
x58
x59
x60
x61
x62
